results/res_prop_muc/res_Cimatti_mathsat_cores/QF_UF/PEQ013_size5.smt.smt2.out

real	0m0.711s
user	0m0.604s
sys	0m0.015s
