results/res_prop_muc/res_Cimatti_mathsat_cores/QF_UF/PEQ013_size5.smt.smt2.res
unsat
( _c0
  _c1
  _c100
  _c101
  _c102
  _c103
  _c104
  _c105
  _c106
  _c107
  _c108
  _c109
  _c110
  _c111
  _c112
  _c113
  _c114
  _c115
  _c117
  _c118
  _c119
  _c120
  _c121
  _c122
  _c123
  _c124
  _c125
  _c126
  _c127
  _c128
  _c129
  _c130
  _c131
  _c132
  _c133
  _c134
  _c135
  _c136
  _c137
  _c138
  _c139
  _c140
  _c141
  _c142
  _c143
  _c144
  _c145
  _c146
  _c147
  _c148
  _c149
  _c150
  _c151
  _c152
  _c153
  _c154
  _c155
  _c156
  _c157
  _c158
  _c159
  _c160
  _c161
  _c162
  _c163
  _c164
  _c165
  _c166
  _c167
  _c168
  _c169
  _c170
  _c171
  _c172
  _c173
  _c174
  _c175
  _c176
  _c202
  _c203
  _c204
  _c205
  _c208
  _c209
  _c211
  _c212
  _c213
  _c221
  _c228
  _c229
  _c230
  _c231
  _c232
  _c233
  _c234
  _c235
  _c236
  _c237
  _c238
  _c239
  _c240
  _c241
  _c242
  _c243
  _c244
  _c245
  _c246
  _c247
  _c248
  _c249
  _c250
  _c251
  _c252
  _c263
  _c264
  _c265
  _c266
  _c267
  _c268
  _c269
  _c270
  _c271
  _c273
  _c274
  _c275
  _c276
  _c277
  _c278
  _c279
  _c280
  _c281
  _c282
  _c283
  _c284
  _c285
  _c286
  _c287
  _c288
  _c289
  _c290
  _c291
  _c292
  _c293
  _c294
  _c295
  _c296
  _c297
  _c298
  _c299
  _c300
  _c301
  _c302
  _c303
  _c304
  _c305
  _c306
  _c307
  _c308
  _c309
  _c310
  _c311
  _c312
  _c313
  _c314
  _c315
  _c316
  _c317
  _c318
  _c319
  _c320
  _c321
  _c322
  _c323
  _c324
  _c325
  _c326
  _c327
  _c328
  _c329
  _c330
  _c331
  _c332
  _c333
  _c334
  _c336
  _c337
  _c338
  _c339
  _c340
  _c341
  _c342
  _c343
  _c345
  _c346
  _c347
  _c348
  _c349
  _c350
  _c351
  _c352
  _c353
  _c354
  _c355
  _c356
  _c357
  _c358
  _c359
  _c360
  _c361
  _c362
  _c363
  _c364
  _c365
  _c366
  _c367
  _c368
  _c369
  _c370
  _c371
  _c372
  _c373
  _c374
  _c375
  _c376
  _c378
  _c379
  _c380
  _c381
  _c382
  _c383
  _c384
  _c385
  _c386
  _c387
  _c388
  _c389
  _c390
  _c391
  _c392
  _c393
  _c394
  _c395
  _c396
  _c397
  _c398
  _c399
  _c400
  _c401
  _c402
  _c403
  _c404
  _c405
  _c406
  _c407
  _c412
  _c469
  _c472
  _c489
  _c492
  _c500
  _c519
  _c52
  _c520
  _c521
  _c522
  _c523
  _c524
  _c525
  _c526
  _c527
  _c528
  _c529
  _c53
  _c531
  _c532
  _c533
  _c534
  _c535
  _c536
  _c537
  _c538
  _c539
  _c54
  _c540
  _c541
  _c542
  _c543
  _c544
  _c545
  _c546
  _c547
  _c55
  _c550
  _c551
  _c552
  _c553
  _c555
  _c556
  _c557
  _c558
  _c559
  _c56
  _c560
  _c561
  _c562
  _c563
  _c564
  _c565
  _c566
  _c567
  _c568
  _c569
  _c57
  _c570
  _c571
  _c572
  _c574
  _c575
  _c576
  _c577
  _c578
  _c579
  _c58
  _c581
  _c582
  _c583
  _c584
  _c585
  _c586
  _c587
  _c588
  _c589
  _c59
  _c590
  _c591
  _c593
  _c594
  _c595
  _c596
  _c597
  _c599
  _c60
  _c600
  _c601
  _c602
  _c605
  _c606
  _c607
  _c608
  _c609
  _c61
  _c610
  _c612
  _c613
  _c614
  _c615
  _c616
  _c617
  _c618
  _c619
  _c62
  _c620
  _c621
  _c622
  _c624
  _c625
  _c626
  _c627
  _c63
  _c631
  _c632
  _c636
  _c637
  _c638
  _c639
  _c64
  _c640
  _c641
  _c642
  _c646
  _c647
  _c649
  _c65
  _c651
  _c652
  _c659
  _c66
  _c660
  _c661
  _c662
  _c668
  _c67
  _c671
  _c672
  _c68
  _c69
  _c70
  _c701
  _c702
  _c704
  _c705
  _c706
  _c707
  _c708
  _c71
  _c710
  _c711
  _c712
  _c713
  _c716
  _c717
  _c718
  _c719
  _c72
  _c720
  _c721
  _c722
  _c728
  _c73
  _c730
  _c731
  _c732
  _c733
  _c74
  _c75
  _c76
  _c769
  _c77
  _c772
  _c778
  _c78
  _c783
  _c784
  _c785
  _c786
  _c788
  _c789
  _c79
  _c790
  _c791
  _c792
  _c798
  _c799
  _c80
  _c801
  _c802
  _c803
  _c804
  _c805
  _c806
  _c807
  _c808
  _c809
  _c81
  _c82
  _c83
  _c84
  _c85
  _c86
  _c87
  _c88
  _c89
  _c90
  _c91
  _c92
  _c93
  _c94
  _c95
  _c96
  _c97
  _c98
  _c99 )
